
1.00000000
                       3.19219000       0.00000000       0.00000000
                       1.59609500       2.76451763       0.00000000
                       3.03258050       0.82935529      15.63847332
Mg 
6 
Direct
               0.4666667    0.5916667    0.2500000 Mg
               0.2000001    0.4916667    0.5833333 Mg
               0.9333333    0.3916667    0.9166667 Mg
               0.2666667    0.3083333    0.0833333 Mg
              -0.0000001    0.2083333    0.4166667 Mg
               0.7333333    0.1083333    0.7500000 Mg

