
1.00000000
                       3.19219000       0.00000000       0.00000000
                       1.59609500       2.76451763       0.00000000
                       3.83062800       2.21161410      15.63847332
Mg 
6 
Direct
               0.4666667    0.4666667    0.2500000 Mg
               0.2000001    0.2000001    0.5833333 Mg
               0.9333333    0.9333333    0.9166667 Mg
               0.2666667    0.2666667    0.0833333 Mg
              -0.0000001   -0.0000001    0.4166667 Mg
               0.7333333    0.7333333    0.7500000 Mg

