
1.00000000
                       3.19219000       0.00000000       0.00000000
                       1.59609500       2.76451763       0.00000000
                       1.59609500       1.10580705      15.63847332
Mg 
6 
Direct
               0.5916667    0.5666667    0.2500000 Mg
               0.4916667    0.4333334    0.5833333 Mg
               0.3916667    0.3000000    0.9166667 Mg
               0.3083333    0.3000000    0.0833333 Mg
               0.2083333    0.1666666    0.4166667 Mg
               0.1083333    0.0333333    0.7500000 Mg

