
1.00000000
                       3.19219000       0.00000000       0.00000000
                       1.59609500       2.76451763       0.00000000
                       0.79804750       0.82935529      15.63847332
Mg 
6 
Direct
               0.6416667    0.5916667    0.2500000 Mg
               0.6083334    0.4916667    0.5833333 Mg
               0.5750000    0.3916667    0.9166667 Mg
               0.3250000    0.3083333    0.0833333 Mg
               0.2916666    0.2083333    0.4166667 Mg
               0.2583333    0.1083333    0.7500000 Mg

