
1.00000000
                       3.19219000       0.00000000       0.00000000
                       1.59609500       2.76451763       0.00000000
                       3.35179950       1.38225881      15.63847332
Mg 
6 
Direct
               0.4666667    0.5416667    0.2500000 Mg
               0.2000001    0.3750000    0.5833333 Mg
               0.9333333    0.2083333    0.9166667 Mg
               0.2666667    0.2916666    0.0833333 Mg
              -0.0000001    0.1249999    0.4166667 Mg
               0.7333333    0.9583333    0.7500000 Mg

