
1.00000000
                       3.19219000       0.00000000       0.00000000
                       1.59609500       2.76451763       0.00000000
                       2.87297100       1.10580705      15.63847332
Mg 
6 
Direct
               0.4916667    0.5666667    0.2500000 Mg
               0.2583334    0.4333334    0.5833333 Mg
               0.0250000    0.3000000    0.9166667 Mg
               0.2750000    0.3000000    0.0833333 Mg
               0.0416666    0.1666666    0.4166667 Mg
               0.8083333    0.0333333    0.7500000 Mg

