
1.00000000
                       3.19219000       0.00000000       0.00000000
                       1.59609500       2.76451763       0.00000000
                       3.19219000       1.65871058      15.63847332
Mg 
6 
Direct
               0.4916667    0.5166667    0.2500000 Mg
               0.2583334    0.3166667    0.5833333 Mg
               0.0250000    0.1166667    0.9166667 Mg
               0.2750000    0.2833333    0.0833333 Mg
               0.0416666    0.0833333    0.4166667 Mg
               0.8083333    0.8833333    0.7500000 Mg

