
1.00000000
                       3.19219000       0.00000000       0.00000000
                       1.59609500       2.76451763       0.00000000
                       2.07492350       2.48806587      15.63847332
Mg 
6 
Direct
               0.6166667    0.4416667    0.2500000 Mg
               0.5500000    0.1416667    0.5833333 Mg
               0.4833334    0.8416667    0.9166667 Mg
               0.3166666    0.2583333    0.0833333 Mg
               0.2500000    0.9583333    0.4166667 Mg
               0.1833333    0.6583333    0.7500000 Mg

